# Objective value = 3.0295151051782523e+02
x[0] 1
x[1] 0
x[2] 0
x[3] 1
x[4] 1
x[5] 0
x[6] 1
x[7] 1
x[8] 1
x[9] 1
x[10] 0
x[11] 0
x[12] 1
x[13] 0
x[14] 0
x[15] 0
x[16] 1
x[17] 0
x[18] 0
x[19] 1
x[20] 0
x[21] 0
x[22] 0
x[23] 0
x[24] 1
x[25] 0
x[26] 1
x[27] 0
x[28] 0
x[29] 0
x[30] 0
x[31] 1
x[32] 0
x[33] 0
x[34] 0
x[35] 0
x[36] 1
x[37] 1
x[38] 0
x[39] 1
x[40] 0
x[41] 1
x[42] 1
x[43] 1
x[44] 1
x[45] 1
x[46] 0
x[47] 1
x[48] 1
x[49] 1
x[50] 0
x[51] 1
x[52] 1
x[53] 0
x[54] 1
x[55] 0
x[56] 1
x[57] 1
x[58] 0
x[59] 1
x[60] 0
x[61] 1
x[62] 0
x[63] 1
x[64] 0
x[65] 0
x[66] 0
x[67] 0
x[68] 0
x[69] 0
x[70] 0
x[71] 0
x[72] 0
x[73] 0
x[74] 0
x[75] 0
x[76] 1
x[77] 0
x[78] 1
x[79] 1
x[80] 1
x[81] 0
x[82] 1
x[83] 1
x[84] 1
x[85] 1
x[86] 0
x[87] 1
x[88] 1
x[89] 0
x[90] 1
x[91] 1
x[92] 1
x[93] 0
x[94] 0
x[95] 1
x[96] 0
x[97] 0
x[98] 0
x[99] 1
x[100] 0
x[101] 0
x[102] 1
x[103] 1
x[104] 1
x[105] 1
x[106] 0
x[107] 1
x[108] 0
x[109] 1
x[110] 0
x[111] 1
x[112] 0
x[113] 1
x[114] 1
x[115] 0
x[116] 1
x[117] 1
x[118] 1
x[119] 1
x[120] 0
x[121] 0
x[122] 1
x[123] 1
x[124] 1
x[125] 0
x[126] 0
x[127] 1
x[128] 0
x[129] 0
x[130] 0
x[131] 1
x[132] 1
x[133] 0
x[134] 1
x[135] 1
x[136] 0
x[137] 0
x[138] 1
x[139] 0
x[140] 1
x[141] 0
x[142] 1
x[143] 1
x[144] 0
x[145] 1
x[146] 1
x[147] 1
x[148] 0
x[149] 0
x[150] 0
x[151] 1
x[152] 0
x[153] 0
x[154] 0
x[155] 0
x[156] 0
x[157] 0
x[158] 1
x[159] 0
x[160] 1
x[161] 0
x[162] 1
x[163] 0
x[164] 1
x[165] 0
x[166] 1
x[167] 0
x[168] 0
x[169] 1
x[170] 1
x[171] 1
x[172] 0
x[173] 1
x[174] 1
x[175] 0
x[176] 1
x[177] 0
x[178] 0
x[179] 0
x[180] 0
x[181] 0
x[182] 1
x[183] 1
x[184] 0
x[185] 0
x[186] 0
x[187] 0
x[188] 0
x[189] 1
x[190] 0
x[191] 1
x[192] 0
x[193] 0
x[194] 1
x[195] 0
x[196] 0
x[197] 1
x[198] 0
x[199] 0
x[200] 1
x[201] 1
x[202] 0
x[203] 1
x[204] 1
x[205] 0
x[206] 1
x[207] 0
x[208] 1
x[209] 0
x[210] 0
x[211] 1
x[212] 0
x[213] 0
x[214] 0
x[215] 0
x[216] 0
x[217] 0
x[218] 1
x[219] 0
x[220] 1
x[221] 0
x[222] 0
x[223] 1
x[224] 1
x[225] 1
x[226] 1
x[227] 0
x[228] 0
x[229] 0
x[230] 1
x[231] 0
x[232] 0
x[233] 1
x[234] 1
x[235] 1
x[236] 1
x[237] 0
x[238] 1
x[239] 1
x[240] 0
x[241] 1
x[242] 1
x[243] 0
x[244] 1
x[245] 1
x[246] 1
x[247] 1
x[248] 1
x[249] 1
x[250] 0
x[251] 1
x[252] 1
x[253] 1
x[254] 0
x[255] 1
x[256] 1
x[257] 0
x[258] 1
x[259] 1
x[260] 0
x[261] 1
x[262] 0
x[263] 0
x[264] 1
x[265] 0
x[266] 0
x[267] 0
x[268] 0
x[269] 1
x[270] 1
x[271] 0
x[272] 0
x[273] 0
x[274] 0
x[275] 0
x[276] 0
x[277] 0
x[278] 1
x[279] 1
x[280] 1
x[281] 0
x[282] 1
x[283] 1
x[284] 0
x[285] 1
x[286] 1
x[287] 1
x[288] 1
x[289] 0
x[290] 1
x[291] 1
x[292] 0
x[293] 0
x[294] 0
x[295] 0
x[296] 9.9999920333333348e-01
x[297] 1
x[298] 1
x[299] 0
x[300] 0
x[301] 1
x[302] 1
x[303] 0
x[304] 0
x[305] 0
x[306] 1
x[307] 0
x[308] 0
x[309] 1
x[310] 0
x[311] 1
x[312] 0
x[313] 0
x[314] 0
x[315] 0
x[316] 1
x[317] 1
x[318] 1
x[319] 0
x[320] 0
x[321] 0
x[322] 7.9611500224869659e-07
x[323] 0
x[324] 0
x[325] 0
x[326] 0
x[327] 1
x[328] 0
x[329] 0
x[330] 0
x[331] 1
x[332] 1
x[333] 7.9748325379058679e-07
x[334] 0
x[335] 0
x[336] 0
x[337] 1
x[338] 0
x[339] 1
x[340] 0
x[341] 1
x[342] 0
x[343] 1
x[344] 0
x[345] 1
x[346] 0
x[347] 1
x[348] 0
x[349] 1
x[350] 0
x[351] 1
x[352] 0
x[353] 0
x[354] 1
x[355] 0
x[356] 0
x[357] 1
x[358] 1
x[359] 1
x[360] 1
x[361] 0
x[362] 0
x[363] 0
x[364] 1
x[365] 1
x[366] 1
x[367] 1
x[368] 0
x[369] 1
x[370] 0
x[371] 1
x[372] 1
x[373] 0
x[374] 1
x[375] 0
x[376] 1
x[377] 0
x[378] 0
x[379] 1
x[380] 0
x[381] 0
x[382] 1
x[383] 1
x[384] 0
x[385] 0
x[386] 1
x[387] 0
x[388] 0
x[389] 0
x[390] 0
x[391] 0
x[392] 0
x[393] 1
x[394] 0
x[395] 0
x[396] 1
x[397] 0
x[398] 1
x[399] 1
x[400] 0
x[401] 1
x[402] 1
x[403] 0
x[404] 0
x[405] 0
x[406] 1
x[407] 1
x[408] 0
x[409] 1
x[410] 1
x[411] 1
x[412] 0
x[413] 0
x[414] 0
x[415] 0
x[416] 0
x[417] 0
x[418] 0
x[419] 0
x[420] 0
x[421] 1
x[422] 0
x[423] 1
x[424] 1
x[425] 1
x[426] 1
x[427] 1
x[428] 0
x[429] 1
x[430] 1
x[431] 0
x[432] 0
x[433] 1
x[434] 1
x[435] 1
x[436] 1
x[437] 1
x[438] 0
x[439] 1
x[440] 0
x[441] 1
x[442] 0
x[443] 1
x[444] 1
x[445] 0
x[446] 1
x[447] 0
x[448] 1
x[449] 0
x[450] 0
x[451] 0
x[452] 1
x[453] 0
x[454] 1
x[455] 0
x[456] 1
x[457] 1
x[458] 0
x[459] 0
x[460] 1
x[461] 0
x[462] 0
x[463] 0
x[464] 1
x[465] 0
x[466] 0
x[467] 9.9999960298065393e-01
x[468] 0
x[469] 0
x[470] 1
x[471] 1
x[472] 0
x[473] 1
x[474] 1
x[475] 0
x[476] 1
x[477] 0
x[478] 0
x[479] 1
x[480] 0
x[481] 1
x[482] 0
x[483] 1
x[484] 0
x[485] 0
x[486] 0
x[487] 0
x[488] 1
x[489] 1
x[490] 1
x[491] 1
x[492] 0
x[493] 0
x[494] 1
x[495] 0
x[496] 0
x[497] 0
x[498] 0
x[499] 0
x[500] 1
x[501] 0
x[502] 1
x[503] 1
x[504] 0
x[505] 0
x[506] 0
x[507] 1
x[508] 1
x[509] 0
x[510] 0
x[511] 1
x[512] 1
x[513] 1
x[514] 1
x[515] 1
x[516] 1
x[517] 1
x[518] 0
x[519] 1
x[520] 0
x[521] 0
x[522] 0
x[523] 0
x[524] 1
x[525] 0
x[526] 0
x[527] 0
x[528] 0
x[529] 0
x[530] 1
x[531] 0
x[532] 1
x[533] 1
x[534] 7.9889468873698716e-07
x[535] 1
x[536] 0
x[537] 0
x[538] 1
x[539] 1
x[540] 0
x[541] 1
x[542] 1
x[543] 1
x[544] 1
x[545] 0
x[546] 1
x[547] 1
x[548] 0
x[549] 1
x[550] 1
x[551] 0
x[552] 1
x[553] 1
x[554] 1
x[555] 1
x[556] 1
x[557] 0
x[558] 0
x[559] 1
x[560] 0
x[561] 1
x[562] 1
x[563] 0
x[564] 0
x[565] 0
x[566] 0
x[567] 0
x[568] 1
x[569] 6.98769127156067e-07
x[570] 0
x[571] 1
x[572] 1
x[573] 1
x[574] 0
x[575] 1
x[576] 0
x[577] 1
x[578] 1
x[579] 0
x[580] 1
x[581] 0
x[582] 1
x[583] 0
x[584] 0
x[585] 1
x[586] 0
x[587] 1
x[588] 1
x[589] 1
x[590] 0
x[591] 1
x[592] 1
x[593] 1
x[594] 0
x[595] 0
x[596] 0
x[597] 0
x[598] 1
x[599] 1
x[600] 0
x[601] 1
x[602] 0
x[603] 1
x[604] 1
x[605] 0
x[606] 1
x[607] 1
x[608] 0
x[609] 1
x[610] 1
x[611] 0
x[612] 1
x[613] 0
x[614] 1
x[615] 1
x[616] 1
x[617] 0
x[618] 0
x[619] 1
x[620] 0
x[621] 0
x[622] 1
x[623] 1
x[624] 1
x[625] 1
x[626] 0
x[627] 1
x[628] 0
x[629] 1
x[630] 0
x[631] 1
x[632] 1
x[633] 0
x[634] 1
x[635] 1
x[636] 1
x[637] 0
x[638] 0
x[639] 0
x[640] 1
x[641] 0
x[642] 1
x[643] 0
x[644] 0
x[645] 1
x[646] 0
x[647] 0
x[648] 1
x[649] 0
x[650] 1
x[651] 0
x[652] 1
x[653] 1
x[654] 0
x[655] 1
x[656] 0
x[657] 1
x[658] 1
x[659] 0
x[660] 1
x[661] 0
x[662] 1
x[663] 1
x[664] 0
x[665] 0
x[666] 0
x[667] 1
x[668] 0
x[669] 0
x[670] 0
x[671] 0
x[672] 9.9999920377327967e-01
x[673] 1
x[674] 0
x[675] 0
x[676] 1
x[677] 0
x[678] 1
x[679] 1
x[680] 1
x[681] 1
x[682] 0
x[683] 1
x[684] 0
x[685] 1
x[686] 0
x[687] 0
x[688] 1
x[689] 1
x[690] 0
x[691] 0
x[692] 0
x[693] 0
x[694] 0
x[695] 0
x[696] 1
x[697] 1
x[698] 1
x[699] 1
x[700] 1
x[701] 1
x[702] 0
x[703] 1
x[704] 0
x[705] 1
x[706] 1
x[707] 1
x[708] 0
x[709] 0
x[710] 1
x[711] 0
x[712] 1
x[713] 0
x[714] 1
x[715] 0
x[716] 1
x[717] 1
x[718] 1
x[719] 1
x[720] 0
x[721] 0
x[722] 0
x[723] 0
x[724] 0
x[725] 1
x[726] 1
x[727] 1
x[728] 1
x[729] 0
x[730] 0
x[731] 0
x[732] 1
x[733] 1
x[734] 1
x[735] 0
x[736] 0
x[737] 0
x[738] 1
x[739] 1
x[740] 1
x[741] 1
x[742] 0
x[743] 1
x[744] 0
x[745] 0
x[746] 0
x[747] 0
x[748] 0
x[749] 1
x[750] 0
x[751] 1
x[752] 0
x[753] 1
x[754] 0
x[755] 1
x[756] 1
x[757] 1
x[758] 1
x[759] 1
x[760] 1
x[761] 1
x[762] 0
x[763] 0
x[764] 1
x[765] 1
x[766] 1
x[767] 0
x[768] 0
x[769] 0
x[770] 0
x[771] 1
x[772] 1
x[773] 1
x[774] 0
x[775] 1
x[776] 0
x[777] 1
x[778] 0
x[779] 0
x[780] 0
x[781] 0
x[782] 0
x[783] 1
x[784] 1
x[785] 1
x[786] 0
x[787] 0
x[788] 0
x[789] 0
x[790] 0
x[791] 0
x[792] 0
x[793] 1
x[794] 1
x[795] 1
x[796] 0
x[797] 1
x[798] 1
x[799] 1
x[800] 0
x[801] 0
x[802] 1
x[803] 1
x[804] 1
x[805] 1
x[806] 0
x[807] 1
x[808] 0
x[809] 1
x[810] 1
x[811] 1
x[812] 0
x[813] 0
x[814] 1
x[815] 1
x[816] 0
x[817] 0
x[818] 1
x[819] 0
x[820] 0
x[821] 1
x[822] 1
x[823] 0
x[824] 0
x[825] 1
x[826] 1
x[827] 0
x[828] 0
x[829] 1
x[830] 1
x[831] 0
x[832] 0
x[833] 1
x[834] 1
x[835] 1
x[836] 0
x[837] 0
x[838] 0
x[839] 1
x[840] 1
x[841] 0
x[842] 1
x[843] 0
x[844] 1
x[845] 1
x[846] 1
x[847] 0
x[848] 1
x[849] 0
x[850] 0
x[851] 1
x[852] 0
x[853] 0
x[854] 1
x[855] 0
x[856] 0
x[857] 0
x[858] 1
x[859] 0
x[860] 1
x[861] 0
x[862] 1
x[863] 0
x[864] 0
x[865] 1
x[866] 1
x[867] 0
x[868] 1
x[869] 1
x[870] 1
x[871] 0
x[872] 0
x[873] 0
x[874] 0
x[875] 1
x[876] 0
x[877] 0
x[878] 0
x[879] 0
x[880] 0
x[881] 1
x[882] 0
x[883] 1
x[884] 1
x[885] 0
x[886] 0
x[887] 0
x[888] 0
x[889] 1
x[890] 0
x[891] 0
x[892] 1
x[893] 0
x[894] 0
x[895] 0
x[896] 1
x[897] 1
x[898] 1
x[899] 0
x[900] 1
x[901] 1
x[902] 0
x[903] 1
x[904] 0
x[905] 0
x[906] 0
x[907] 1
x[908] 0
x[909] 1
x[910] 0
x[911] 0
x[912] 0
x[913] 0
x[914] 0
x[915] 0
x[916] 1
x[917] 1
x[918] 0
x[919] 1
x[920] 1
x[921] 0
x[922] 1
x[923] 1
x[924] 1
x[925] 1
x[926] 0
x[927] 1
x[928] 0
x[929] 1
x[930] 0
x[931] 1
x[932] 0
x[933] 1
x[934] 0
x[935] 1
x[936] 1
x[937] 0
x[938] 1
x[939] 1
x[940] 1
x[941] 0
x[942] 0
x[943] 1
x[944] 0
x[945] 1
x[946] 0
x[947] 0
x[948] 0
x[949] 1
x[950] 1
x[951] 1
x[952] 1
x[953] 1
x[954] 0
x[955] 0
x[956] 1
x[957] 0
x[958] 1
x[959] 0
x[960] 1
x[961] 1
x[962] 1
x[963] 0
x[964] 0
x[965] 1
x[966] 0
x[967] 1
x[968] 1
x[969] 1
x[970] 1
x[971] 1
x[972] 1
x[973] 0
x[974] 0
x[975] 0
x[976] 0
x[977] 0
x[978] 0
x[979] 1
x[980] 1
x[981] 0
x[982] 1
x[983] 1
x[984] 0
x[985] 1
x[986] 0
x[987] 0
x[988] 1
x[989] 1
x[990] 1
x[991] 1
x[992] 1
x[993] 0
x[994] 0
x[995] 0
x[996] 1
x[997] 0
x[998] 0
x[999] 1
